9 28
1 2 0
1 3 1
1 4 1
1 5 1
1 6 1
1 7 1
1 8 1
1 9 1
2 3 1
2 4 1
2 5 1
2 6 1
2 7 1
2 8 1
2 9 1
3 4 1
3 5 1
3 6 0
3 7 1
3 8 1
3 9 0
4 5 1
4 6 0
4 7 0
4 8 1
4 9 1
5 6 0
5 7 1
5 8 0
5 9 1
6 7 1
6 8 1
6 9 1
7 8 1
7 9 1
8 9 0
